benchmarks_CP/INST_36x36/35/inst36x36_35_51.dzn
S=6;
start=[|
-1,	-1,	-1,	1,	-1,	22,	-1,	14,	34,	-1,	15,	-1,	-1,	-1,	-1,	12,	-1,	-1,	-1,	29,	26,	20,	24,	-1,	-1,	13,	30,	11,	7,	18,	-1,	-1,	-1,	-1,	21,	-1|
-1,	-1,	-1,	-1,	-1,	-1,	-1,	-1,	-1,	1,	9,	24,	8,	-1,	10,	-1,	-1,	-1,	-1,	23,	-1,	19,	31,	7,	-1,	-1,	32,	-1,	-1,	-1,	-1,	-1,	35,	25,	-1,	4|
-1,	-1,	33,	-1,	4,	29,	-1,	2,	11,	-1,	-1,	19,	21,	1,	3,	34,	-1,	-1,	12,	-1,	18,	-1,	-1,	9,	-1,	28,	-1,	26,	24,	-1,	8,	-1,	-1,	-1,	-1,	-1|
-1,	-1,	-1,	28,	-1,	7,	-1,	-1,	21,	17,	-1,	-1,	16,	-1,	11,	-1,	-1,	-1,	-1,	-1,	5,	15,	-1,	-1,	-1,	-1,	35,	-1,	9,	36,	-1,	-1,	-1,	14,	-1,	-1|
13,	-1,	-1,	26,	-1,	18,	-1,	-1,	-1,	-1,	-1,	29,	-1,	-1,	-1,	-1,	-1,	-1,	28,	-1,	-1,	-1,	-1,	14,	5,	-1,	-1,	-1,	-1,	3,	-1,	-1,	-1,	16,	-1,	1|
-1,	-1,	-1,	-1,	-1,	23,	-1,	-1,	-1,	35,	-1,	27,	-1,	-1,	-1,	-1,	29,	20,	3,	-1,	-1,	-1,	8,	21,	-1,	-1,	4,	1,	17,	-1,	28,	-1,	-1,	-1,	-1,	-1|
11,	-1,	24,	-1,	-1,	-1,	9,	-1,	-1,	-1,	-1,	7,	-1,	27,	-1,	-1,	-1,	17,	26,	-1,	-1,	-1,	21,	-1,	-1,	-1,	-1,	-1,	-1,	-1,	-1,	-1,	10,	-1,	-1,	-1|
-1,	-1,	13,	16,	-1,	-1,	-1,	-1,	-1,	-1,	-1,	-1,	-1,	18,	-1,	24,	-1,	-1,	-1,	-1,	12,	5,	30,	19,	-1,	14,	-1,	-1,	-1,	6,	-1,	-1,	-1,	-1,	-1,	-1|
-1,	-1,	-1,	-1,	-1,	-1,	10,	19,	29,	-1,	36,	-1,	32,	-1,	-1,	-1,	-1,	-1,	-1,	-1,	-1,	-1,	27,	-1,	-1,	-1,	-1,	18,	12,	28,	-1,	-1,	7,	-1,	8,	-1|
-1,	7,	-1,	-1,	-1,	-1,	-1,	-1,	13,	-1,	16,	-1,	-1,	-1,	14,	-1,	-1,	-1,	-1,	-1,	3,	-1,	-1,	35,	34,	30,	25,	-1,	-1,	24,	-1,	-1,	-1,	33,	-1,	19|
-1,	-1,	-1,	36,	-1,	33,	-1,	-1,	27,	34,	-1,	-1,	29,	-1,	5,	2,	-1,	9,	22,	-1,	-1,	-1,	-1,	17,	-1,	-1,	3,	-1,	-1,	-1,	-1,	18,	-1,	-1,	-1,	-1|
-1,	-1,	-1,	34,	15,	14,	17,	-1,	-1,	-1,	-1,	-1,	-1,	35,	-1,	30,	-1,	-1,	-1,	13,	7,	28,	-1,	-1,	-1,	-1,	-1,	-1,	-1,	-1,	36,	5,	-1,	-1,	-1,	16|
-1,	-1,	-1,	8,	-1,	-1,	24,	4,	6,	-1,	-1,	-1,	-1,	-1,	36,	21,	-1,	-1,	-1,	-1,	27,	-1,	-1,	18,	32,	-1,	-1,	-1,	-1,	14,	-1,	-1,	17,	-1,	-1,	-1|
-1,	-1,	15,	-1,	14,	17,	-1,	34,	-1,	-1,	-1,	-1,	24,	16,	30,	-1,	-1,	-1,	6,	-1,	-1,	-1,	-1,	10,	25,	26,	-1,	-1,	-1,	31,	-1,	11,	-1,	35,	12,	36|
-1,	-1,	-1,	33,	32,	-1,	-1,	-1,	-1,	25,	-1,	-1,	-1,	-1,	27,	-1,	26,	-1,	-1,	21,	2,	12,	16,	-1,	18,	-1,	-1,	-1,	-1,	-1,	9,	4,	-1,	-1,	15,	-1|
-1,	-1,	-1,	-1,	-1,	-1,	-1,	-1,	-1,	-1,	20,	-1,	11,	-1,	17,	-1,	-1,	-1,	-1,	-1,	-1,	23,	3,	-1,	-1,	-1,	-1,	-1,	-1,	13,	34,	-1,	-1,	-1,	18,	-1|
-1,	-1,	-1,	9,	-1,	-1,	12,	-1,	-1,	26,	-1,	-1,	25,	-1,	-1,	-1,	-1,	-1,	-1,	24,	22,	33,	17,	-1,	-1,	-1,	1,	15,	-1,	-1,	2,	16,	23,	19,	-1,	-1|
26,	-1,	-1,	-1,	-1,	6,	-1,	36,	-1,	31,	-1,	18,	-1,	-1,	-1,	-1,	35,	-1,	19,	-1,	-1,	34,	-1,	32,	-1,	-1,	-1,	-1,	30,	9,	-1,	-1,	-1,	27,	24,	-1|
-1,	-1,	-1,	29,	-1,	-1,	7,	-1,	12,	9,	-1,	-1,	-1,	-1,	15,	-1,	-1,	-1,	18,	10,	-1,	-1,	-1,	23,	-1,	-1,	-1,	-1,	2,	-1,	-1,	24,	-1,	-1,	14,	-1|
-1,	30,	4,	18,	-1,	1,	-1,	-1,	-1,	6,	-1,	-1,	-1,	-1,	-1,	-1,	-1,	25,	-1,	-1,	-1,	31,	-1,	-1,	-1,	-1,	-1,	32,	-1,	5,	-1,	35,	27,	7,	22,	-1|
-1,	31,	-1,	23,	13,	-1,	-1,	-1,	-1,	-1,	-1,	-1,	-1,	12,	-1,	-1,	-1,	32,	-1,	11,	-1,	-1,	-1,	-1,	-1,	-1,	-1,	19,	20,	-1,	-1,	-1,	1,	-1,	-1,	3|
-1,	-1,	-1,	-1,	-1,	-1,	-1,	-1,	-1,	33,	-1,	34,	18,	-1,	-1,	22,	7,	5,	-1,	-1,	1,	-1,	-1,	24,	-1,	-1,	-1,	25,	-1,	-1,	-1,	31,	-1,	-1,	19,	-1|
-1,	17,	-1,	-1,	-1,	-1,	29,	-1,	14,	-1,	-1,	-1,	30,	-1,	-1,	-1,	24,	-1,	32,	-1,	-1,	16,	-1,	-1,	-1,	-1,	15,	3,	-1,	-1,	-1,	-1,	-1,	-1,	-1,	-1|
-1,	-1,	-1,	14,	-1,	-1,	-1,	17,	35,	-1,	24,	-1,	-1,	-1,	-1,	-1,	8,	31,	-1,	30,	-1,	-1,	-1,	-1,	22,	-1,	-1,	10,	-1,	27,	-1,	32,	-1,	-1,	-1,	-1|
33,	6,	26,	-1,	20,	3,	25,	-1,	-1,	13,	11,	5,	-1,	-1,	-1,	-1,	19,	-1,	-1,	-1,	24,	-1,	29,	-1,	-1,	-1,	-1,	-1,	32,	8,	-1,	12,	14,	-1,	-1,	-1|
-1,	15,	8,	-1,	-1,	-1,	-1,	-1,	19,	24,	1,	-1,	-1,	-1,	-1,	25,	-1,	16,	-1,	-1,	-1,	-1,	-1,	28,	4,	20,	-1,	-1,	-1,	-1,	-1,	36,	-1,	11,	30,	-1|
-1,	-1,	14,	-1,	1,	-1,	-1,	-1,	-1,	29,	-1,	31,	22,	-1,	13,	35,	3,	-1,	-1,	-1,	-1,	-1,	18,	-1,	-1,	10,	16,	-1,	25,	-1,	-1,	27,	-1,	-1,	-1,	-1|
-1,	29,	17,	-1,	-1,	-1,	26,	-1,	-1,	-1,	-1,	-1,	-1,	24,	18,	11,	32,	23,	-1,	-1,	-1,	-1,	-1,	-1,	-1,	33,	-1,	30,	-1,	-1,	-1,	8,	-1,	-1,	1,	-1|
-1,	-1,	-1,	30,	-1,	-1,	-1,	3,	20,	32,	-1,	-1,	-1,	-1,	-1,	15,	1,	2,	-1,	-1,	8,	-1,	26,	-1,	-1,	29,	-1,	22,	-1,	-1,	-1,	-1,	6,	-1,	35,	-1|
16,	-1,	31,	-1,	-1,	32,	15,	-1,	18,	-1,	30,	-1,	-1,	-1,	-1,	-1,	-1,	-1,	20,	-1,	-1,	36,	-1,	34,	14,	-1,	5,	-1,	-1,	-1,	-1,	7,	-1,	28,	-1,	-1|
-1,	-1,	-1,	-1,	19,	-1,	-1,	26,	28,	-1,	32,	15,	-1,	-1,	12,	-1,	-1,	-1,	24,	-1,	23,	22,	-1,	-1,	-1,	36,	-1,	-1,	-1,	-1,	-1,	-1,	-1,	6,	9,	10|
8,	-1,	-1,	6,	12,	-1,	4,	24,	23,	11,	-1,	9,	-1,	-1,	-1,	16,	-1,	-1,	-1,	26,	-1,	-1,	-1,	13,	-1,	-1,	17,	28,	-1,	-1,	35,	14,	-1,	21,	5,	-1|
14,	1,	-1,	-1,	-1,	-1,	-1,	-1,	31,	-1,	-1,	13,	15,	28,	26,	-1,	20,	-1,	8,	17,	19,	-1,	-1,	-1,	-1,	-1,	-1,	-1,	-1,	-1,	-1,	-1,	-1,	-1,	34,	27|
-1,	-1,	34,	-1,	-1,	9,	-1,	-1,	17,	14,	27,	-1,	-1,	25,	-1,	32,	31,	-1,	-1,	-1,	28,	-1,	12,	-1,	-1,	4,	-1,	7,	33,	-1,	-1,	-1,	-1,	-1,	-1,	20|
-1,	-1,	16,	-1,	-1,	24,	-1,	33,	-1,	-1,	-1,	35,	3,	9,	-1,	8,	23,	10,	11,	-1,	31,	-1,	-1,	-1,	-1,	25,	-1,	-1,	-1,	-1,	-1,	26,	28,	1,	7,	-1|
23,	-1,	7,	22,	-1,	20,	-1,	-1,	-1,	-1,	6,	-1,	36,	34,	-1,	14,	11,	-1,	-1,	-1,	-1,	-1,	15,	-1,	35,	-1,	26,	-1,	-1,	-1,	31,	-1,	-1,	-1,	29,	-1|];
